33D32945 STP File, STP Format Version 1.0

SECTION Comment
Name    "cancer4_6D"
Creator "S. A. Chowdhury, A. A. Schaffer, R. Schwartz"
Problem "Rectilinear Steiner Minimum Tree"
Remark  "Derived from a problem in cancer research"
END

SECTION Graph 
Nodes 93
END

SECTION Coordinates
DDDDDD 1 2 2 2 2 2 2 
DDDDDD 2 2 0 1 1 1 2 
DDDDDD 3 2 1 0 1 1 2 
DDDDDD 4 2 1 2 1 1 2 
DDDDDD 5 2 1 2 2 2 2 
DDDDDD 6 2 2 2 2 3 2 
DDDDDD 7 3 0 1 1 1 2 
DDDDDD 8 6 1 2 2 2 4 
DDDDDD 9 6 1 2 2 4 4 
DDDDDD 10 9 1 2 1 1 4 
DDDDDD 11 4 1 2 1 1 4 
DDDDDD 12 5 1 2 1 2 4 
DDDDDD 13 7 1 1 2 2 4 
DDDDDD 14 8 1 2 3 5 4 
DDDDDD 15 2 1 1 1 1 2 
DDDDDD 16 6 1 1 2 3 4 
DDDDDD 17 7 1 4 2 3 4 
DDDDDD 18 7 2 1 1 1 2 
DDDDDD 19 2 1 2 2 2 3 
DDDDDD 20 2 1 2 2 3 2 
DDDDDD 21 2 1 2 1 1 4 
DDDDDD 22 2 1 2 2 1 4 
DDDDDD 23 2 1 2 2 2 4 
DDDDDD 24 2 2 2 1 1 2 
DDDDDD 25 2 2 2 1 2 2 
DDDDDD 26 2 2 2 1 2 3 
DDDDDD 27 2 2 2 2 2 3 
DDDDDD 28 2 2 2 3 3 2 
DDDDDD 29 2 3 2 2 2 3 
DDDDDD 30 3 0 2 2 2 2 
DDDDDD 31 3 2 2 1 2 2 
DDDDDD 32 3 2 2 2 2 2 
DDDDDD 33 3 2 1 1 1 3 
DDDDDD 34 4 1 2 2 2 4 
DDDDDD 35 4 2 2 2 2 2 
DDDDDD 36 4 2 2 3 3 4 
DDDDDD 37 4 2 2 2 3 4 
DDDDDD 38 5 2 1 2 2 4 
DDDDDD 39 6 1 1 2 2 2 
DDDDDD 40 6 2 4 5 5 4 
DDDDDD 41 2 1 1 2 3 2 
DDDDDD 42 2 2 2 3 3 4 
DDDDDD 43 3 1 2 2 2 4 
DDDDDD 44 3 1 2 3 2 4 
DDDDDD 45 4 1 2 1 1 2 
DDDDDD 46 4 1 2 2 2 3 
DDDDDD 47 4 1 2 3 3 4 
DDDDDD 48 4 1 2 2 3 4 
DDDDDD 49 4 2 2 3 1 3 
DDDDDD 50 5 1 2 2 2 4 
DDDDDD 51 5 1 2 2 3 2 
DDDDDD 52 5 1 2 2 3 3 
DDDDDD 53 5 1 2 2 3 4 
DDDDDD 54 5 1 2 3 3 4 
DDDDDD 55 5 2 1 3 3 6 
DDDDDD 56 5 2 3 2 2 4 
DDDDDD 57 6 1 2 1 3 5 
DDDDDD 58 6 1 2 1 2 4 
DDDDDD 59 6 1 2 1 2 5 
DDDDDD 60 6 1 2 2 3 4 
DDDDDD 61 6 1 2 3 3 4 
DDDDDD 62 6 2 3 3 3 5 
DDDDDD 63 6 2 3 2 2 4 
DDDDDD 64 7 1 2 2 2 4 
DDDDDD 65 9 1 2 3 3 4 
DDDDDD 66 4 0 3 2 2 4 
DDDDDD 67 5 1 1 2 2 4 
DDDDDD 68 5 1 3 3 3 4 
DDDDDD 69 6 1 3 2 2 4 
DDDDDD 70 6 2 4 2 2 4 
DDDDDD 71 8 2 3 2 2 4 
DDDDDD 72 2 1 3 2 2 4 
DDDDDD 73 2 2 2 2 2 4 
DDDDDD 74 4 0 2 2 2 4 
DDDDDD 75 4 1 2 3 3 2 
DDDDDD 76 6 2 2 3 3 4 
DDDDDD 77 2 1 2 1 2 4 
DDDDDD 78 2 1 2 2 3 6 
DDDDDD 79 3 1 2 3 3 4 
DDDDDD 80 4 1 2 3 2 4 
DDDDDD 81 5 1 2 2 1 4 
DDDDDD 82 5 1 2 2 2 3 
DDDDDD 83 6 1 2 1 3 2 
DDDDDD 84 6 1 2 2 2 5 
DDDDDD 85 9 1 2 2 2 4 
DDDDDD 86 2 1 3 3 3 3 
DDDDDD 87 6 2 4 2 3 4 
DDDDDD 88 9 1 7 3 6 8 
DDDDDD 89 7 1 2 3 4 4 
DDDDDD 90 5 1 2 2 2 5 
DDDDDD 91 4 2 2 2 2 4 
DDDDDD 92 5 3 3 4 4 6 
DDDDDD 93 9 1 4 5 5 3 
END

EOF
